ADDGRID = True
ALGO = All
EDIFF = 0.0001
EDIFFG = -0.05
ENCUT = 450
IBRION = 1
ICHARG = 2
ISIF = 3
ISMEAR = 0
ISPIN = 2
KSPACING = 0.22
LAECHG = False
LASPH = True
LCHARG = False
LDAU = True
LDAUJ = 0 0 0 0 0
LDAUL = 0 2 2 2 0
LDAUPRINT = 1
LDAUTYPE = 2
LDAUU = 0 2.93 2.86 2.43 0
LELF = False
LMAXMIX = 4
LMIXTAU = True
LORBIT = 11
LREAL = Auto
LVTOT = True
LWAVE = False
MAGMOM = 10*0.6 2*5.0 2*0.0 6*1.0 20*0.6
METAGGA = Scan
NELM = 200
NELMIN = 5
NPAR = 4
NSW = 500
PREC = Accurate
SIGMA = 0.2
