pymatgen v2020.7.16 with grid density = 1500 / number of atoms
0
Gamma
1 4 4
