Li10 Mn2 Co2 Ni6 O20
1.0
13.606858 0.000000 4.026632
2.483054 4.843335 1.610653
0.000000 0.000000 5.000714
Li Mn Co Ni O
10 2 2 6 20
direct
0.100000 0.250000 0.500000 Li0+
0.100000 0.750000 0.500000 Li0+
0.300000 0.250000 0.500000 Li0+
0.300000 0.750000 0.500000 Li0+
0.500000 0.250000 0.500000 Li0+
0.500000 0.750000 0.500000 Li0+
0.700000 0.250000 0.500000 Li0+
0.700000 0.750000 0.500000 Li0+
0.900000 0.250000 0.500000 Li0+
0.900000 0.750000 0.500000 Li0+
0.800000 0.000000 0.000000 Mn0+
0.800000 0.500000 0.000000 Mn0+
0.000000 0.000000 0.000000 Co0+
0.000000 0.500000 0.000000 Co0+
0.200000 0.000000 0.000000 Ni0+
0.200000 0.500000 0.000000 Ni0+
0.400000 0.000000 0.000000 Ni0+
0.400000 0.500000 0.000000 Ni0+
0.600000 0.000000 0.000000 Ni0+
0.600000 0.500000 0.000000 Ni0+
0.052101 0.130252 0.218487 O0+
0.052101 0.630252 0.218487 O0+
0.252101 0.130252 0.218487 O0+
0.252101 0.630252 0.218487 O0+
0.452101 0.130252 0.218487 O0+
0.452101 0.630252 0.218487 O0+
0.652101 0.130252 0.218487 O0+
0.652101 0.630252 0.218487 O0+
0.852101 0.130252 0.218487 O0+
0.852101 0.630252 0.218487 O0+
0.147899 0.369748 0.781513 O0+
0.147899 0.869748 0.781513 O0+
0.347899 0.369748 0.781513 O0+
0.347899 0.869748 0.781513 O0+
0.547899 0.369748 0.781513 O0+
0.547899 0.869748 0.781513 O0+
0.747899 0.369748 0.781513 O0+
0.747899 0.869748 0.781513 O0+
0.947899 0.369748 0.781513 O0+
0.947899 0.869748 0.781513 O0+
