ALGO = Normal
CH_LSPEC = True
CH_SIGMA = 0.5
CLL = 0
CLN = 1
CLNT = 1
CLZ = 1.0
ICORELEVEL = 2
ISMEAR = 0
ISPIN = 2
KSPACING = 0.22
LASPH = True
LCHARG = False
LDAU = True
LDAUJ = 0 0 0 0 0 0
LDAUL = 2 0 2 2 2 0
LDAUTYPE = 2
LDAUU = 2.43 0 2.93 2.86 2.43 0
LELF = False
LMAXMIX = 4
LMIXTAU = True
LORBIT = 11
LREAL = Auto
LWAVE = False
MAGMOM = 12*0.6 1*1.0 26*0.6
METAGGA = R2scan
NBANDS = 1600
SIGMA = 0.1
