pymatgen v2020.8.13 with grid density = 1880 / number of atoms
0
Gamma
1 4 5
