Li9 Mn2 Co1 Ni7 O20
1.0
13.579812 0.000000 4.155599
2.517723 4.862713 1.656883
0.000000 0.000000 4.987295
Ni Li Mn Co Ni O
1 9 2 1 6 20
direct
0.002121 0.495154 0.002296 Ni
0.100125 0.751118 0.496589 Li
0.295813 0.253780 0.497026 Li
0.294157 0.761456 0.503036 Li
0.495302 0.253068 0.506376 Li
0.500402 0.745423 0.502304 Li
0.700375 0.250554 0.503504 Li
0.700669 0.749993 0.501906 Li
0.910808 0.248628 0.489799 Li
0.905683 0.738486 0.504281 Li
0.597388 0.502444 0.008771 Mn
0.802900 0.998698 0.996246 Mn
0.003022 0.997687 0.987115 Co
0.197462 0.001090 0.000886 Ni
0.199254 0.499582 0.996234 Ni
0.397288 0.005290 0.002717 Ni
0.397053 0.502155 0.001847 Ni
0.599835 0.999388 0.003237 Ni
0.801779 0.497723 0.002493 Ni
0.055410 0.104172 0.212346 O
0.053053 0.631828 0.200623 O
0.255899 0.142881 0.218705 O
0.244119 0.633449 0.212467 O
0.442942 0.137838 0.221343 O
0.457929 0.612425 0.246161 O
0.657031 0.134855 0.230975 O
0.649547 0.615967 0.232492 O
0.856534 0.114371 0.217680 O
0.853796 0.644443 0.231057 O
0.151415 0.368613 0.791506 O
0.148662 0.844023 0.772279 O
0.337393 0.390574 0.761223 O
0.344676 0.876382 0.792778 O
0.547685 0.386396 0.779685 O
0.544719 0.859030 0.776366 O
0.744331 0.364435 0.773160 O
0.755578 0.876680 0.770856 O
0.953442 0.368942 0.787975 O
0.944403 0.890977 0.763659 O
